54047
10, 21, 23, 53, 34, 9, 14, 2, 42, 33, 1, 27, 31, 25, 11, 45, 52, 15, 36, 46, 39, 16, 12, 18, 4, 30, 47, 54, 26, 55, 28, 6, 3, 43, 13, 51, 40, 7, 37, 5, 35, 24, 20, 50, 38, 8, 44, 32, 41, 19, 49, 48, 17, 29, 22
